HmaxDs = 0.500000
HmaxUB_percent = 1.013137
HmaxUB_real = 2001.908055
FTnetDs = 1.000000
FTnetUB_percent = 1.931587
FTnetUB_real = 4568.512309
TIFgap = 0.400000
LimCIPF = 69.32811522
SCIP version 1.1.0 [precision: 8 byte] [memory: block] [mode: optimized] [LP solver: Clp 1.8.2]
Copyright (c) 2002-2008 Konrad-Zuse-Zentrum fuer Informationstechnik Berlin (ZIB)

reading user parameter file </home/fabio/docs/hierarquia/models/scip.set>

read problem <data.N30.I1.s1.cluster2.T6.GL3.W2.TIFgap0.4.mps.gz>
============

original problem has 620 variables (315 bin, 0 int, 0 impl, 305 cont) and 205 constraints

solve problem
=============

presolving:
(round 1) 3 del vars, 3 del conss, 44 chg bounds, 0 chg sides, 50 chg coeffs, 0 upgd conss, 0 impls, 60 clqs
(round 2) 5 del vars, 3 del conss, 44 chg bounds, 1 chg sides, 50 chg coeffs, 0 upgd conss, 0 impls, 60 clqs
(round 3) 5 del vars, 3 del conss, 44 chg bounds, 3 chg sides, 50 chg coeffs, 0 upgd conss, 0 impls, 60 clqs
(round 4) 5 del vars, 4 del conss, 44 chg bounds, 3 chg sides, 50 chg coeffs, 61 upgd conss, 0 impls, 60 clqs
presolving (5 rounds):
 5 deleted vars, 4 deleted constraints, 44 tightened bounds, 0 added holes, 3 changed sides, 50 changed coefficients
 14122 implications, 60 cliques
presolved problem has 615 variables (315 bin, 0 int, 0 impl, 300 cont) and 201 constraints
      1 constraints of type <knapsack>
     60 constraints of type <setppc>
    140 constraints of type <linear>
Presolving Time: 0.21

 time | node  | left  |LP iter| mem |mdpt |frac |vars |cons |ccons|cols |rows |cuts |confs|strbr|  dualbound   | primalbound  |  gap   
  0.2s|     1 |     0 |   237 |1865k|   0 |  87 | 615 | 201 | 201 | 615 | 201 |   0 |   0 |   0 | 4.262577e+01 |      --      |    Inf 
  0.5s|     1 |     0 |  1561 |2061k|   0 |  82 | 615 | 201 | 201 | 615 | 236 |  35 |   0 |   0 | 1.064721e+02 |      --      |    Inf 
  0.8s|     1 |     0 |  1698 |2121k|   0 |  86 | 615 | 201 | 201 | 615 | 257 |  56 |   0 |   0 | 2.288722e+02 |      --      |    Inf 
  1.1s|     1 |     0 |  1785 |2138k|   0 |  84 | 615 | 201 | 201 | 615 | 263 |  62 |   0 |   0 | 3.116932e+02 |      --      |    Inf 
  1.5s|     1 |     0 |  1861 |2159k|   0 |  84 | 615 | 201 | 201 | 615 | 269 |  68 |   0 |   0 | 3.508209e+02 |      --      |    Inf 
  1.8s|     1 |     0 |  1905 |2172k|   0 |  91 | 615 | 201 | 201 | 615 | 275 |  74 |   0 |   0 | 3.739067e+02 |      --      |    Inf 
  2.1s|     1 |     0 |  1943 |2178k|   0 |  89 | 615 | 201 | 201 | 615 | 279 |  78 |   0 |   0 | 3.898829e+02 |      --      |    Inf 
  2.4s|     1 |     0 |  1944 |2179k|   0 |  89 | 615 | 201 | 201 | 615 | 280 |  79 |   0 |   0 | 3.898829e+02 |      --      |    Inf 
  3.9s|     1 |     2 |  1972 |2183k|   0 |  89 | 615 | 201 | 201 | 615 | 280 |  79 |   0 |  20 | 3.898829e+02 |      --      |    Inf 
 15.8s|   100 |    15 | 12838 |2259k|  16 |   - | 615 | 229 | 178 | 615 | 245 |  79 |  28 | 985 | 1.179677e+03 |      --      |    Inf 
 19.2s|   200 |    11 | 24260 |2284k|  19 |   - | 615 | 255 | 195 | 615 | 245 |  79 |  54 |1123 | 1.586740e+03 |      --      |    Inf 

SCIP Status        : problem is solved [infeasible]
Solving Time (sec) : 20.01
Solving Nodes      : 227
Primal Bound       : +1.00000000000000e+20 (0 solutions)
Dual Bound         : +1.00000000000000e+20
Gap                : 0.00 %

primal solution:
================

no solution available

Statistics
==========

SCIP Status        : problem is solved [infeasible]
Solving Time       :      20.01
Original Problem   :
  Problem name     : labtel
  Variables        : 620 (315 binary, 0 integer, 0 implicit integer, 305 continuous)
  Constraints      : 205 initial, 205 maximal
Presolved Problem  :
  Problem name     : t_labtel
  Variables        : 615 (315 binary, 0 integer, 0 implicit integer, 300 continuous)
  Constraints      : 201 initial, 256 maximal
Presolvers         :       Time  FixedVars   AggrVars   ChgTypes  ChgBounds   AddHoles    DelCons   ChgSides   ChgCoefs
  trivial          :       0.00          0          0          0          0          0          0          0          0
  dualfix          :       0.00          0          0          0          0          0          0          0          0
  boundshift       :       0.00          0          0          0          0          0          0          0          0
  inttobinary      :       0.00          0          0          0          0          0          0          0          0
  implics          :       0.00          0          0          0          0          0          0          0          0
  probing          :       0.19          0          0          0          0          0          0          0          0
  knapsack         :       0.00          0          0          0          0          0          0          0          0
  setppc           :       0.00          0          0          0          0          0          0          0          0
  linear           :       0.01          0          5          0         44          0          4          3         50
  logicor          :       0.00          0          0          0          0          0          0          0          0
  root node        :          -          1          -          -          1          -          -          -          -
Constraints        :     Number  #Separate #Propagate    #EnfoLP    #EnfoPS    Cutoffs    DomReds       Cuts      Conss   Children
  integral         :          0          0          0        159          0          6         81          0          0        226
  knapsack         :          1          8       1513          0          0          0          0          0          0          0
  setppc           :         60          8       1513          0          0          0      11292          0          0          0
  linear           :        140          8       1513          0          0         22       5969          0          0          0
  logicor          :          0+         0        252          0          0          6         53          0          0          0
  countsols        :          0          0          0          0          0          0          0          0          0          0
Constraint Timings :  TotalTime   Separate  Propagate     EnfoLP     EnfoPS
  integral         :      11.57       0.00       0.00      11.57       0.00
  knapsack         :       0.00       0.00       0.00       0.00       0.00
  setppc           :       0.05       0.01       0.04       0.00       0.00
  linear           :       0.21       0.02       0.19       0.00       0.00
  logicor          :       0.00       0.00       0.00       0.00       0.00
  countsols        :       0.00       0.00       0.00       0.00       0.00
Propagators        :       Time      Calls    Cutoffs    DomReds
  rootredcost      :       0.00          0          0          0
  pseudoobj        :       0.00        748          1          0
Conflict Analysis  :       Time      Calls    Success  Conflicts   Literals    Reconvs ReconvLits   LP Iters
  propagation      :       0.00         28         27         62       12.3          1        9.0          -
  infeasible LP    :       0.02         91          1          6       12.8          0        0.0          0
  bound exceed. LP :       0.00          0          0          0        0.0          0        0.0          0
  strong branching :       0.00          0          0          0        0.0          0        0.0          0
  pseudo solution  :       0.00          0          0          0        0.0          0        0.0          -
  applied globally :          -          -          -         55        8.5          -          -          -
  applied locally  :          -          -          -          0        0.0          -          -          -
Separators         :       Time      Calls    Cutoffs    DomReds       Cuts      Conss
  cut pool         :       0.00          7          -          -         16          -    (maximal pool size: 126)
  redcost          :       0.00        166          0          0          0          0
  impliedbounds    :       0.00          8          0          0          0          0
  intobj           :       0.00          0          0          0          0          0
  gomory           :       0.08          8          0          0         13          0
  strongcg         :       0.05          8          0          0          0          0
  cmir             :       1.17          8          0          0        116          0
  flowcover        :       0.80          8          0          0         12          0
  clique           :       0.00          8          0          0          0          0
  zerohalf         :       0.00          0          0          0          0          0
  mcf              :       0.00          0          0          0          0          0
Pricers            :       Time      Calls       Vars
  problem variables:       0.00          0          0
Branching Rules    :       Time      Calls    Cutoffs    DomReds       Cuts      Conss   Children
  relpscost        :      11.57        159          6         81          0          0        226
  pscost           :       0.00          0          0          0          0          0          0
  inference        :       0.00          0          0          0          0          0          0
  mostinf          :       0.00          0          0          0          0          0          0
  leastinf         :       0.00          0          0          0          0          0          0
  fullstrong       :       0.00          0          0          0          0          0          0
  allfullstrong    :       0.00          0          0          0          0          0          0
  random           :       0.00          0          0          0          0          0          0
Primal Heuristics  :       Time      Calls      Found
  LP solutions     :       0.00          -          0
  pseudo solutions :       0.00          -          0
  oneopt           :       0.00          0          0
  linesearchdiving :       0.00          0          0
  guideddiving     :       0.00          0          0
  crossover        :       0.00          0          0
  coefdiving       :       0.00          1          0
  pscostdiving     :       0.00          1          0
  fracdiving       :       0.00          1          0
  veclendiving     :       0.00          1          0
  objpscostdiving  :       0.02          1          0
  rootsoldiving    :       0.26          1          0
  simplerounding   :       0.00          0          0
  rounding         :       0.00        131          0
  shifting         :       0.03         13          0
  intshifting      :       0.00          1          0
  fixandinfer      :       0.00          0          0
  feaspump         :       0.11          1          0
  intdiving        :       0.00          0          0
  actconsdiving    :       0.00          0          0
  octane           :       0.00          0          0
  rens             :       0.99          1          0
  rins             :       0.00          0          0
  localbranching   :       0.00          0          0
  mutation         :       0.00          0          0
  dins             :       0.00          0          0
LP                 :       Time      Calls Iterations  Iter/call   Iter/sec
  primal LP        :       0.01          0          0       0.00          -
  dual LP          :       4.40        286      26569      92.90    6038.41
  barrier LP       :       0.00          0          0       0.00          -
  diving/probing LP:       0.38         46       1884      40.96    4957.89
  strong branching :      11.57       1129      94125      83.37    8135.26
    (at root node) :          -         20       2220     111.00          -
  conflict analysis:       0.00          0          0       0.00          -
B&B Tree           :
  number of runs   :          1
  nodes            :        227
  nodes (total)    :        227
  nodes left       :          0
  max depth        :         19
  max depth (total):         19
  backtracks       :         43 (18.9%)
  delayed cutoffs  :          0
  repropagations   :         52 (774 domain reductions, 0 cutoffs)
  avg switch length:       3.31
  switching time   :       0.08
Solution           :
  Solutions found  :          0 (0 improvements)
  Primal Bound     : infeasible
  Dual Bound       :          -
  Gap              :       0.00 %
  Root Dual Bound  : +3.89882942944568e+02
